DATASET = "thpack7";
INSTANCE = "050";

WIDTH = 233;
HEIGHT = 220;
LENGTH = 587;

NO_OF_SHAPES = 20;
size = [|
  60,40,32 |
  98,75,55 |
  60,59,39 |
  81,56,40 |
  119,34,25 |
  107,61,42 |
  108,85,20 |
  97,66,45 |
  66,35,26 |
  69,32,20 |
  78,63,38 |
  95,77,47 |
  40,34,30 |
  88,42,20 |
  103,84,69 |
  119,72,34 |
  115,61,47 |
  68,50,28 |
  71,63,24 |
  87,68,40 |
|];

verticality = [|
  1,1,1 |
  1,1,1 |
  1,1,1 |
  0,1,1 |
  0,1,1 |
  0,1,1 |
  0,0,1 |
  0,1,1 |
  0,1,1 |
  0,1,1 |
  0,1,1 |
  0,1,1 |
  1,1,1 |
  0,0,1 |
  1,1,1 |
  0,0,1 |
  0,1,1 |
  0,1,1 |
  0,0,1 |
  0,1,1 |
|];

box_count = [
  7,
  3,
  6,
  9,
  13,
  13,
  9,
  6,
  4,
  6,
  5,
  4,
  9,
  9,
  10,
  10,
  5,
  8,
  6,
  7,
];
